c Random 7-CNF over 30 variables and 180 clauses
c Generated with `cnfgen`
c (C) 2012-2016 Massimo Lauria <lauria.massimo@gmail.com>
c https://massimolauria.github.io/cnfgen
c
c COMMAND LINE: cnfgen --output tmp-7-30-180.dimacs --output-format dimacs randkcnf 7 30 180
c
c sdimacs generated by gen-sdimacs
c
p cnf 30 180
r 0.5 1 2 3 4 5 6 7 8 9 10 11 12 13 14 15 0
e  16 17 18 19 20 21 22 23 24 25 26 27 28 29 30 0
-12 17 -18 -23 28 -29 -30 0
5 14 18 19 -27 -28 -29 0
-7 -9 12 15 16 28 -29 0
-2 11 12 13 -16 -19 -21 0
7 -9 -11 -20 -21 -23 28 0
-6 -8 -14 -17 22 -24 -26 0
-4 -6 -9 14 -15 -16 -17 0
2 8 -14 15 -19 -26 -30 0
-10 12 16 19 20 26 29 0
2 -5 -7 -12 18 27 30 0
5 6 10 -15 17 -19 -27 0
5 7 8 -16 21 26 -27 0
6 14 -20 -24 -25 27 28 0
-1 -10 -13 -14 -15 -16 -19 0
-1 11 14 -15 -18 -26 29 0
-8 -9 11 -18 19 -21 27 0
8 -10 -12 -18 21 -26 28 0
-3 -12 14 -18 20 23 29 0
-6 -9 -13 -24 -26 28 30 0
1 4 -5 9 11 20 -25 0
-3 7 13 -24 25 -27 30 0
2 -5 -7 10 13 -16 -29 0
-2 4 5 -11 -13 -16 25 0
5 8 9 -11 20 21 22 0
-2 3 9 11 -16 22 -27 0
-3 11 12 -15 16 -21 -23 0
2 3 -4 13 -16 17 -24 0
-5 7 10 -12 -14 -22 -23 0
-3 7 9 -10 -24 27 30 0
-2 3 9 11 15 23 24 0
-5 -6 -8 11 -13 17 21 0
7 12 17 19 -20 -24 -28 0
3 4 -5 19 21 22 24 0
-5 -12 23 -26 27 -29 30 0
2 4 -16 17 -21 -24 28 0
6 -8 -13 -17 24 25 28 0
-2 -4 -7 -14 -16 20 -23 0
3 -6 8 15 -19 22 27 0
-1 5 8 14 -22 -28 29 0
5 -13 -18 -20 23 25 -30 0
6 9 14 -22 24 25 29 0
3 12 -13 -15 16 -24 -28 0
1 2 17 19 20 21 23 0
8 -12 -17 19 24 -25 28 0
4 6 -7 -8 11 23 -27 0
-2 8 -13 18 -19 26 -29 0
-7 8 -12 -13 -15 -20 -29 0
4 -5 -14 18 25 26 -27 0
8 -9 10 -13 19 22 26 0
4 -11 16 20 -22 -23 29 0
1 -4 8 16 -19 -22 -30 0
-2 -3 -4 7 13 -24 30 0
2 -5 7 11 -13 -20 -29 0
3 -10 -11 -14 18 -26 27 0
-11 13 16 -17 -18 27 28 0
3 6 8 15 21 -26 29 0
1 5 8 14 -19 22 -24 0
-4 13 -15 -18 -27 -28 -30 0
-2 -4 -6 -10 19 21 -25 0
4 -5 -6 11 15 -17 22 0
1 -2 4 19 -23 -25 29 0
-1 -2 -3 8 -9 13 -17 0
2 -13 -14 16 -21 -25 27 0
2 3 5 7 8 -12 -14 0
-1 2 4 13 18 -26 28 0
6 12 15 17 -18 23 29 0
2 -8 -12 20 22 -27 -30 0
1 13 20 -22 25 -27 -30 0
-6 -11 12 14 -19 -20 30 0
-1 7 -8 15 19 -25 -30 0
-1 -2 -4 6 -16 -22 25 0
2 -4 -7 13 15 24 -30 0
-1 3 -5 -11 13 -15 -27 0
2 -8 -18 24 28 -29 -30 0
5 -6 10 -17 21 -23 26 0
1 -3 -5 6 -17 18 28 0
-1 -4 6 7 11 17 24 0
-2 3 6 9 -11 15 -26 0
1 2 -3 -6 18 20 25 0
3 -6 -10 -11 13 -21 -25 0
-2 -3 -15 17 -26 27 28 0
4 -7 13 -24 -25 26 30 0
-7 -10 12 20 24 -29 -30 0
-3 14 17 -18 -20 27 30 0
2 8 -9 -12 -18 -21 24 0
17 -18 -21 23 28 29 -30 0
-2 3 -9 -15 -17 -23 -30 0
-9 15 -17 -19 21 24 -29 0
8 -12 16 -20 22 -29 -30 0
-3 7 -12 17 -18 -23 -28 0
2 3 5 -6 15 22 30 0
-5 -8 -9 -10 -12 -20 -26 0
1 3 -5 -14 18 21 23 0
6 -7 14 -16 -21 -25 -26 0
4 -11 15 -19 20 -23 -28 0
1 3 -12 15 18 -21 -22 0
-3 -12 -15 -17 -19 20 -28 0
-3 6 11 20 23 -26 29 0
2 4 -6 7 -9 16 -21 0
-6 -10 -13 -16 -23 24 -29 0
2 -6 -11 15 -21 -22 30 0
3 12 -15 -16 -20 -21 23 0
-2 4 -14 15 -19 22 -29 0
10 11 -12 13 23 -27 -30 0
7 -10 13 15 -25 -27 -29 0
-2 4 -8 -10 -15 18 -29 0
-3 -8 15 -17 -23 -26 -30 0
-14 16 -18 -19 23 -24 -25 0
-8 -9 10 -13 -18 21 30 0
1 8 -9 14 -21 -26 28 0
-1 9 10 12 19 -20 28 0
-3 5 -6 -14 -20 -21 22 0
1 -3 5 9 -14 -29 30 0
-1 3 4 -6 -22 -24 25 0
2 4 8 17 -20 -22 -25 0
3 7 -10 11 -16 -20 -23 0
5 -8 -9 15 19 -25 29 0
-3 -4 -5 11 12 16 -22 0
-5 -11 16 -18 23 -25 27 0
-13 14 15 -16 18 -25 27 0
1 7 14 18 -23 24 30 0
6 7 -9 13 19 -26 -27 0
5 -10 14 -16 18 -23 30 0
2 4 -13 -14 -18 -21 -28 0
2 -3 9 12 -14 15 -24 0
6 -7 -12 -13 16 26 -28 0
-3 8 -10 17 22 -24 -29 0
2 -10 14 15 18 26 30 0
1 -3 -5 -10 11 -17 25 0
-2 -9 -12 14 -20 23 -25 0
-6 -8 -14 -16 19 22 -30 0
3 9 14 -17 23 25 -30 0
-2 11 -13 18 26 27 -30 0
1 -7 12 18 21 22 -27 0
-3 -8 9 -10 -19 22 25 0
6 -14 -18 19 -20 22 24 0
-6 10 12 -19 -21 -23 26 0
2 7 -13 16 19 -28 29 0
3 4 7 -13 -19 22 28 0
-1 2 -8 -11 12 -15 -24 0
4 -6 10 20 -25 -26 30 0
2 -5 -6 -12 -14 16 -27 0
-2 -10 -14 19 -21 -22 -30 0
3 -4 -17 19 -21 26 28 0
-4 -6 -14 19 25 26 28 0
-1 -2 6 16 17 -19 -23 0
3 -11 -15 -17 21 24 29 0
-1 6 15 -21 -23 26 -30 0
-3 6 7 22 24 -27 -29 0
3 14 -20 -21 22 26 -30 0
-5 6 -8 -14 -20 -22 -24 0
-8 -12 -14 -20 23 -24 -27 0
-1 -4 -8 10 16 -19 -25 0
4 -6 -11 -19 24 25 -30 0
-1 4 -12 -17 -21 25 -28 0
-5 -10 -11 -13 15 22 -28 0
3 -6 8 15 -24 28 29 0
1 4 -9 11 17 23 -28 0
-8 12 16 -17 18 27 -29 0
4 6 8 17 -20 24 29 0
-5 -9 -10 12 14 16 -24 0
5 -6 -11 14 -15 17 22 0
1 -13 -16 17 20 -24 -30 0
7 11 12 13 -15 16 -19 0
-4 6 8 17 -20 25 27 0
-6 14 15 17 -18 21 -30 0
2 -5 -6 -7 10 15 -22 0
-1 -2 9 11 12 -18 -29 0
-8 -14 -15 23 -25 26 -27 0
-3 -4 12 17 21 -22 -29 0
-4 7 8 -13 -18 -25 30 0
-9 10 -12 23 -25 -26 27 0
7 -8 15 17 22 -23 28 0
-2 -6 -12 -13 21 -24 -27 0
1 11 12 -14 19 20 -27 0
6 8 9 10 16 -24 28 0
1 5 -9 -16 -19 20 28 0
1 -7 -12 -22 25 -26 28 0
-3 -6 7 12 -16 -18 30 0
3 -9 19 21 23 -27 29 0
